&control
  calculation          =  'scf',
  outdir               =  './'
  prefix               =  'Si214_fhi'
  pseudo_dir           =  './',
  title                =  'Si214_fhi',
  tprnfor              =  .TRUE.
/

&system
  ibrav                = 0
  nat                  = 214
  ntyp                 = 1
  ecutwfc              = 16,
  occupations          = 'fixed',
  nbnd                 = 432
  nosym_evc            = .true.
/

&ELECTRONS
   conv_thr             =  1d-8,
   mixing_beta          =  0.5,
   electron_maxstep     =  100
   diago_full_acc       = .TRUE.
/

&IONS
   ion_dynamics   =  'bfgs',
 /

ATOMIC_SPECIES
  Si  28.086  Si.pw-mt_fhi.UPF

CELL_PARAMETERS angstrom
   16.290000000     0.000000000     0.000000000
    0.000000000    16.290000000     0.000000000
    0.000000000     0.000000000    16.290000000

K_POINTS  crystal
    1
  0.000000000  0.000000000  0.000000000   1.0

ATOMIC_POSITIONS angstrom
Si      -0.514325913   1.933149104   1.938632195
Si       0.658451813   3.377612555   3.378362784
Si       1.985941412  -0.305435027   1.700841229
Si       3.372580540   0.729277922   3.331313488
Si       1.991533409   1.701159568  -0.311519671
Si       3.373754420   3.331666269   0.728096281
Si      -0.667031209  -0.639034483   4.694227283
Si       0.681330315   0.692572268   6.090516424
Si      -0.676010199   2.034274275   7.466756473
Si       0.672536430   3.382431970  -7.445725072
Si       2.023064571  -0.670399907   7.459772999
Si       3.370467531   0.676843837  -7.448943532
Si       2.042263284   2.062560487   4.746997319
Si       3.390520005   3.405750397   6.122828511
Si      -0.681013338  -0.692472450  -6.091080049
Si       0.667096647   0.639305100  -4.694671859
Si      -0.692164050   1.809225897  -3.162282977
Si       0.693462002   3.161229008  -1.809505313
Si       2.001960419  -0.718784702  -3.323416663
Si       3.362664666   0.643271042  -1.970822516
Si       2.007846705   2.020650215  -6.069910239
Si       3.374812056   3.370824111  -4.714535997
Si      -0.666232508   4.692655002  -0.638325282
Si       0.681401536   6.090239744   0.692489156
Si      -0.675986913   7.466717948   2.034036600
Si       0.672372453  -7.445105152   3.381755613
Si       2.041896784   4.745826329   2.061852193
Si       3.390061501   6.122292442   3.405042803
Si       2.022962724   7.459872221  -0.670413050
Si       3.370007778  -7.448225526   0.676601693
Si      -0.678089277   4.754249657   4.754266192
Si       0.677435744   6.113850826   6.113439289
Si      -0.684405774   7.469088630   7.469305234
Si       0.684223546  -7.468935444  -7.468947742
Si       2.027247692   4.756289788   7.485329950
Si       3.392288774   6.106731904  -7.449829212
Si       2.027138251   7.485526675   4.755378050
Si       3.392212044  -7.449896933   6.106144888
Si      -0.683683970   4.682224736  -6.034030181
Si       0.684171861   6.033921321  -4.681941594
Si      -0.672389418   7.444956066  -3.381739624
Si       0.676143876  -7.467033220  -2.034001537
Si       1.997157022   4.616227039  -3.270472948
Si       3.363645231   6.067228696  -2.013168210
Si       2.022457447   7.434807905  -6.075719864
Si       3.385598687  -7.477258622  -4.742992115
Si      -0.681286415  -6.090503418  -0.692511476
Si       0.666166138  -4.692678051   0.638388041
Si      -0.693120224  -3.161609756   1.810121076
Si       0.692701228  -1.808613689   3.161736347
Si       2.007258120  -6.068526282   2.019771583
Si       3.374512178  -4.713795339   3.370381000
Si       1.998378812  -3.318582898  -0.719933760
Si       3.359059422  -1.966593545   0.643265641
Si      -0.683951754  -6.034250393   4.682392278
Si       0.684113436  -4.682010811   6.033790337
Si      -0.672458824  -3.382509262   7.445397780
Si       0.676255587  -2.034197406  -7.467350710
Si       2.022392140  -6.075965732   7.434371456
Si       3.385693496  -4.743384682  -7.477792364
Si       1.996713888  -3.270119887   4.616132087
Si       3.363576853  -2.013101426   6.067032940
Si      -0.678043711  -6.113763549  -6.113458232
Si       0.677873936  -4.754247091  -4.754538195
Si      -0.658766425  -3.377413236  -3.378541469
Si       0.513816309  -1.932619778  -1.938909835
Si       2.032990747  -6.102820115  -3.389869749
Si       3.379614998  -4.724169396  -2.040948582
Si       2.033237699  -3.390202644  -6.103648825
Si       3.381582890  -2.041403825  -4.726855435
Si       4.799039805  -0.700007969  -0.700241450
Si       6.114136611   0.682660480   0.682443411
Si       4.817024747   2.074620639   2.074374580
Si       6.150106121   3.430531957   3.430335365
Si       7.469106533  -0.674837908   2.035819456
Si      -7.479487215   0.684065482   3.408926786
Si       7.469329783   2.035987961  -0.674883198
Si      -7.479411015   3.409361895   0.683920782
Si       4.720385335  -0.659816674   4.712380146
Si       6.081064195   0.689178481   6.102769461
Si       4.734049665   2.039086589   7.484452323
Si       6.101382738   3.386927100  -7.448870535
Si       7.459832563  -0.671891957   7.456152846
Si      -7.460023615   0.672015289  -7.455763651
Si       7.475279563   2.046123038   4.783885223
Si      -7.448623247   3.397110909   6.135240161
Si       4.733079099  -0.680815525  -6.100046652
Si       6.088933491   0.667778905  -4.732906207
Si       4.720841905   2.015049676  -3.353499338
Si       6.095321967   3.380305963  -2.024016775
Si       7.479600067  -0.684165235  -3.409237284
Si      -7.468809118   0.674524436  -2.036135834
Si       7.460148916   2.027192302  -6.091608684
Si      -7.462294977   3.380579988  -4.738147779
Si       4.721189732   4.713146649  -0.660149735
Si       6.081253760   6.103344222   0.689212239
Si       4.733495583   7.484685036   2.038771022
Si       6.100933916  -7.448947356   3.386887426
Si       7.475317586   4.784244047   2.046032832
Si      -7.448720962   6.135328542   3.397395724
Si       7.460000771   7.456316688  -0.671944773
Si      -7.460242728  -7.456123667   0.672505877
Si       4.750882595   4.768439925   4.768144563
Si       6.112762600   6.120305863   6.120209454
Si       4.743745288   7.474190721   7.473911317
Si       6.110078841  -7.466177651  -7.466153641
Si       7.462712917   4.751014944   7.482500832
Si      -7.460994016   6.102575559  -7.457591691
Si       7.462541689   7.482752725   4.750999820
Si      -7.461120030  -7.457815822   6.102890045
Si       4.734880422   4.737480511  -6.084000141
Si       6.103069434   6.095354513  -4.740361172
Si       4.724658736   7.435023995  -3.381845002
Si       6.085078478  -7.485424831  -2.034094237
Si       7.462978806   4.738532730  -3.380623176
Si      -7.459645824   6.091713530  -2.026856781
Si       7.461105870   7.457745953  -6.102597424
Si      -7.462591093  -7.482604356  -4.750885969
Si       4.731887497  -6.098510459  -0.681138089
Si       6.087720964  -4.731794278   0.667939315
Si       4.718474730  -3.351134216   2.013918827
Si       6.094539892  -2.023784714   3.379829132
Si       7.459140386  -6.091431622   2.026984114
Si      -7.463226510  -4.738640619   3.380740550
Si       7.479455756  -3.409409070  -0.684184096
Si      -7.469048063  -2.036310845   0.674585264
Si       4.734513557  -6.083666475   4.736953529
Si       6.102759234  -4.740589997   6.095251996
Si       4.724587911  -3.381834730   7.434700591
Si       6.085519289  -2.034377821  -7.486089789
Si       7.460932530  -6.102585185   7.457700655
Si      -7.462778009  -4.751138101  -7.482432147
Si       7.462059623  -3.380699495   4.738232716
Si      -7.460739166  -2.027225346   6.091871911
Si       4.737209329  -6.114521364  -6.114596035
Si       6.106521226  -4.763893959  -4.763828888
Si       4.758607491  -3.397809043  -3.398011777
Si       6.144908258  -2.056237892  -2.056132935
Si       7.448855489  -6.135166267  -3.397126588
Si      -7.474906063  -4.784126517  -2.046085037
Si       7.448831855  -3.397114167  -6.135141789
Si      -7.474928936  -2.046266623  -4.783889361
Si      -6.113745652  -0.683020397  -0.682804135
Si      -4.798822068   0.700073358   0.699848753
Si      -6.144757952   2.056258217   2.055850349
Si      -4.758726344   3.397982095   3.397980285
Si      -3.362966573  -0.643091458   1.971228177
Si      -2.002051892   0.719252599   3.323384488
Si      -3.358822243   1.966780567  -0.643689082
Si      -1.998941979   3.319179556   0.719944492
Si      -6.089402241  -0.667961854   4.733174971
Si      -4.733208082   0.680759330   6.099989061
Si      -6.085500179   2.034235017   7.486309562
Si      -4.724580413   3.381692765  -7.434391400
Si      -3.370347459  -0.676898602   7.448644071
Si      -2.022736318   0.670454840  -7.460352895
Si      -3.381809621   2.041598907   4.726952523
Si      -2.033379760   3.390417567   6.103627278
Si      -6.080954561  -0.689201099  -6.102835083
Si      -4.720156243   0.659992697  -4.712735237
Si      -6.094363255   2.023794297  -3.380013350
Si      -4.718532850   3.351438208  -2.014073859
Si      -3.372159387  -0.728964631  -3.331669820
Si      -1.985357786   0.305403943  -1.701155808
Si      -3.362935514   2.013069723  -6.067230106
Si      -1.996283226   3.270498340  -4.616441025
Si      -6.087894655   4.732076767  -0.668122515
Si      -4.732192438   6.098836973   0.681087896
Si      -6.085144546   7.485635927   2.034344011
Si      -4.724806262  -7.434810798   3.382048877
Si      -3.380055665   4.724664191   2.040918703
Si      -2.033273531   6.103026362   3.389866331
Si      -3.370001948   7.448204911  -0.676628569
Si      -2.022753312  -7.460215705   0.670451657
Si      -6.106280714   4.764067047   4.764043849
Si      -4.736908676   6.114590710   6.114861396
Si      -6.109991231   7.466093803   7.466298306
Si      -4.743722080  -7.474251644  -7.473868804
Si      -3.385660492   4.743333295   7.478187335
Si      -2.022397477   6.076003985  -7.434138810
Si      -3.385733998   7.477451838   4.743084960
Si      -2.022610910  -7.434846813   6.075969178
Si      -6.102859305   4.740525852  -6.095068675
Si      -4.734692453   6.083688140  -4.736749849
Si      -6.101130159   7.449006979  -3.386730759
Si      -4.733553603  -7.484746267  -2.038689556
Si      -3.374312196   4.713842485  -3.370534122
Si      -2.007212919   6.068488263  -2.019751612
Si      -3.392405319   7.449790056  -6.106025459
Si      -2.027303148  -7.485741172  -4.755276543
Si      -6.081409538  -6.103585467  -0.689003864
Si      -4.721247523  -4.713777392   0.660542251
Si      -6.095352729  -3.380665073   2.024143546
Si      -4.721247257  -2.015358769   3.353962710
Si      -3.363267512  -6.067593995   2.013414376
Si      -1.996904045  -4.616692332   3.271073317
Si      -3.373713679  -3.332185636  -0.727622276
Si      -1.991848999  -1.701675862   0.312373753
Si      -6.103370258  -6.095337392   4.740590476
Si      -4.735263666  -4.737376043   6.084147490
Si      -6.101794159  -3.386873422   7.448951536
Si      -4.734158568  -2.038984968  -7.484780710
Si      -3.392661219  -6.106726182   7.449737971
Si      -2.027486990  -4.756192110  -7.485714464
Si      -3.374854972  -3.371082409   4.714734566
Si      -2.007660300  -2.020634673   6.069607239
Si      -6.112798711  -6.120421327  -6.120270788
Si      -4.750689372  -4.768623293  -4.768455524
Si      -6.149509192  -3.430610465  -3.430466349
Si      -4.816185666  -2.074804555  -2.074626978
Si      -3.390135529  -6.122390807  -3.405000367
Si      -2.041843482  -4.745980320  -2.061829940
Si      -3.390687855  -3.405661607  -6.123197447
Si      -2.042225469  -2.062334883  -4.747598673

