&control
   prefix = 'i2'
   calculation = 'scf'
   tstress = .true.
   etot_conv_thr = 1d-5
   forc_conv_thr = 1d-4
/
&system
   ibrav = 1
   celldm(1) = 20.0
   nat = 2
   ntyp = 1
   nbnd = 14
   ecutwfc = 36.0
   ecutrho = 36.00001
   assume_isolated='mt'
   nosym_evc = .true.
/
&electrons
   electron_maxstep = 100
   conv_thr = 1.0d-8
   mixing_mode = 'plain'
   mixing_beta = 0.7
   mixing_ndim = 8
   diagonalization = 'david'
   diago_david_ndim = 4
   diago_full_acc = .true.
/
&ions
/
ATOMIC_SPECIES
  I  126.904473  I.pw-mt_fhi.UPF
ATOMIC_POSITIONS (bohr)
  I   10.0000000000   10.0000000000    7.6094919932
  I   10.0000000000   10.0000000000   12.3905080068
K_POINTS automatic
1 1 1 0 0 0

